g9 0 1 0 40 20170706 0 1 0 1	# problem spider2D
 40 40 0 0 40	# vars, constraints, objectives, ranges, eqns
 0 0	# nonlinear constraints, objectives
 0 0	# network constraints: nonlinear, linear
 0 0 0	# nonlinear vars in constraints, objectives, both
 0 0 0 1	# linear network variables; functions; arith, flags
 0 0 0 0 0	# discrete variables: binary, integer, nonlinear (b,c,o)
 232 0	# nonzeros in Jacobian, gradients
 5 5	# max name lengths: constraints, variables
 0 0 0 0 0	# common exprs: b,c,o,c1,o1
S0 40 blockid
0 1
1 1
2 2
3 2
4 3
5 3
6 4
7 4
8 5
9 5
10 6
11 6
12 7
13 7
14 8
15 8
16 9
17 9
18 10
19 10
20 11
21 11
22 12
23 12
24 13
25 13
26 14
27 14
28 15
29 15
30 16
31 16
32 17
33 17
34 18
35 18
36 19
37 19
38 20
39 20
S1 40 blockid
0 2
1 2
2 3
3 3
4 4
5 4
6 5
7 5
8 6
9 6
10 7
11 7
12 8
13 8
14 9
15 9
16 10
17 10
18 11
19 11
20 12
21 12
22 13
23 13
24 14
25 14
26 15
27 15
28 16
29 16
30 17
31 17
32 18
33 18
34 19
35 19
36 20
37 20
38 21
39 21
b
0 -1 3
0 -1 3
0 -1 3
0 -1 3
0 -1 3
0 -1 3
0 -1 3
0 -1 3
0 -1 3
0 -1 3
0 -1 3
0 -1 3
0 -1 3
0 -1 3
0 -1 3
0 -1 3
0 -1 3
0 -1 3
0 -1 3
0 -1 3
0 -1 3
0 -1 3
0 -1 3
0 -1 3
0 -1 3
0 -1 3
0 -1 3
0 -1 3
0 -1 3
0 -1 3
0 -1 3
0 -1 3
0 -1 3
0 -1 3
0 -1 3
0 -1 3
0 -1 3
0 -1 3
0 -1 3
0 -1 3
r
4 14
4 14
4 17
4 17
4 17
4 17
4 17
4 17
4 17
4 17
4 17
4 17
4 17
4 17
4 17
4 17
4 17
4 17
4 17
4 17
4 17
4 17
4 17
4 17
4 17
4 17
4 17
4 17
4 17
4 17
4 17
4 17
4 17
4 17
4 17
4 17
4 17
4 17
4 14
4 14
C0
n0
C1
n0
C2
n0
C3
n0
C4
n0
C5
n0
C6
n0
C7
n0
C8
n0
C9
n0
C10
n0
C11
n0
C12
n0
C13
n0
C14
n0
C15
n0
C16
n0
C17
n0
C18
n0
C19
n0
C20
n0
C21
n0
C22
n0
C23
n0
C24
n0
C25
n0
C26
n0
C27
n0
C28
n0
C29
n0
C30
n0
C31
n0
C32
n0
C33
n0
C34
n0
C35
n0
C36
n0
C37
n0
C38
n0
C39
n0
k39
4
8
14
20
26
32
38
44
50
56
62
68
74
80
86
92
98
104
110
116
122
128
134
140
146
152
158
164
170
176
182
188
194
200
206
212
218
224
228
J0 4
0 10
1 1
2 2
3 1
J1 4
0 1
1 10
2 1
3 2
J2 6
0 2
1 1
2 10
3 1
4 2
5 1
J3 6
0 1
1 2
2 1
3 10
4 1
5 2
J4 6
2 2
3 1
4 10
5 1
6 2
7 1
J5 6
2 1
3 2
4 1
5 10
6 1
7 2
J6 6
4 2
5 1
6 10
7 1
8 2
9 1
J7 6
4 1
5 2
6 1
7 10
8 1
9 2
J8 6
6 2
7 1
8 10
9 1
10 2
11 1
J9 6
6 1
7 2
8 1
9 10
10 1
11 2
J10 6
8 2
9 1
10 10
11 1
12 2
13 1
J11 6
8 1
9 2
10 1
11 10
12 1
13 2
J12 6
10 2
11 1
12 10
13 1
14 2
15 1
J13 6
10 1
11 2
12 1
13 10
14 1
15 2
J14 6
12 2
13 1
14 10
15 1
16 2
17 1
J15 6
12 1
13 2
14 1
15 10
16 1
17 2
J16 6
14 2
15 1
16 10
17 1
18 2
19 1
J17 6
14 1
15 2
16 1
17 10
18 1
19 2
J18 6
16 2
17 1
18 10
19 1
20 2
21 1
J19 6
16 1
17 2
18 1
19 10
20 1
21 2
J20 6
18 2
19 1
20 10
21 1
22 2
23 1
J21 6
18 1
19 2
20 1
21 10
22 1
23 2
J22 6
20 2
21 1
22 10
23 1
24 2
25 1
J23 6
20 1
21 2
22 1
23 10
24 1
25 2
J24 6
22 2
23 1
24 10
25 1
26 2
27 1
J25 6
22 1
23 2
24 1
25 10
26 1
27 2
J26 6
24 2
25 1
26 10
27 1
28 2
29 1
J27 6
24 1
25 2
26 1
27 10
28 1
29 2
J28 6
26 2
27 1
28 10
29 1
30 2
31 1
J29 6
26 1
27 2
28 1
29 10
30 1
31 2
J30 6
28 2
29 1
30 10
31 1
32 2
33 1
J31 6
28 1
29 2
30 1
31 10
32 1
33 2
J32 6
30 2
31 1
32 10
33 1
34 2
35 1
J33 6
30 1
31 2
32 1
33 10
34 1
35 2
J34 6
32 2
33 1
34 10
35 1
36 2
37 1
J35 6
32 1
33 2
34 1
35 10
36 1
37 2
J36 6
34 2
35 1
36 10
37 1
38 2
39 1
J37 6
34 1
35 2
36 1
37 10
38 1
39 2
J38 4
36 2
37 1
38 10
39 1
J39 4
36 1
37 2
38 1
39 10
